22
3 57 36 8 
3 17 24 38 
2 25 13 
3 54 48 50 
3 31 59 41 
2 10 49 
2 2 55 
3 3 6 60 
3 43 15 14 
2 58 51 
3 30 16 50 
3 29 51 42 
3 4 26 5 
2 27 25 
3 9 56 52 
3 47 45 21 
3 24 12 7 
3 11 44 33 
3 35 34 20 
2 22 40 
3 20 22 35 
3 32 39 48 
